Route #1: 26 7 53 35 8 46 34
Route #2: 52 13 54 59 14 19
Route #3: 11 38 10 58 12
Route #4: 51 17 40 9 39
Route #5: 31 25 55 18 50 32 44
Route #6: 3 24 49 56 23 63 16 6
Route #7: 2 21 28 62 33
Route #8: 1 43 41 42 64 22 61
Route #9: 48 47 36 60 20 37 5
Route #10: 30 29 15 57 27 45 4
Cost 842